p tw 1003 1704
1 795
1 796
2 578
2 579
3 659
3 660
4 742
4 743
5 991
5 992
6 679
6 680
7 917
7 918
8 828
8 829
9 716
9 717
10 953
10 954
11 448
11 449
11 675
11 676
11 781
11 782
12 456
12 457
12 691
12 692
12 787
12 788
12 988
12 989
13 934
13 935
14 811
14 812
15 461
15 462
15 570
15 571
16 508
16 509
17 500
17 501
18 972
18 973
19 838
19 839
20 717
20 718
21 593
21 594
22 718
22 719
23 489
23 490
23 861
23 862
24 771
24 772
25 733
25 734
26 967
26 968
27 561
27 562
28 913
28 914
29 298
29 517
30 989
30 990
31 110
31 1003
32 575
32 576
33 821
33 822
34 968
34 969
35 729
35 730
35 900
35 901
35 924
35 925
36 684
36 685
37 515
37 516
38 636
38 637
39 583
39 584
39 830
39 831
40 613
40 614
40 741
40 742
41 444
41 445
41 529
41 530
41 554
41 555
42 480
42 481
43 714
43 715
44 552
44 553
45 637
45 638
46 53
46 915
47 880
47 881
48 610
48 611
48 739
48 740
49 666
49 667
50 784
50 785
50 1000
50 1001
51 971
51 972
52 937
52 938
53 915
54 959
54 960
55 740
55 741
56 648
56 649
56 765
56 766
57 251
57 471
58 671
58 672
58 883
58 884
59 452
59 453
59 645
59 646
59 955
59 956
60 506
60 507
61 630
61 631
62 611
62 612
63 560
63 561
64 961
64 962
65 790
65 791
66 487
66 488
66 945
66 946
67 854
67 855
68 442
68 443
68 528
68 529
68 591
68 592
69 960
69 961
70 446
70 447
70 493
70 494
70 532
70 533
70 597
70 598
70 911
70 912
71 693
71 694
71 891
71 892
72 667
72 668
73 664
73 665
74 467
74 468
74 514
74 515
74 541
74 542
74 703
74 704
74 792
74 793
74 912
74 913
75 538
75 539
75 720
75 721
76 497
76 498
77 980
77 981
78 890
78 891
79 846
79 847
80 721
80 722
81 914
81 915
82 572
82 573
83 715
83 716
84 451
84 452
84 678
84 679
84 782
84 783
84 906
84 907
85 640
85 641
85 952
85 953
86 568
86 569
86 722
86 723
87 658
87 659
88 699
88 700
89 862
89 863
90 796
90 797
91 940
91 941
92 826
92 827
93 553
93 554
93 808
93 809
94 829
94 830
95 546
95 547
95 711
95 712
96 950
96 951
97 635
97 636
98 835
98 836
99 836
99 837
100 701
100 702
100 791
100 792
101 197
101 935
102 670
102 671
103 809
103 810
104 982
104 983
105 975
105 976
106 663
106 664
106 776
106 777
107 527
107 528
108 649
108 650
109 895
109 896
110 1003
111 770
111 771
112 823
112 824
113 939
113 940
114 507
114 508
114 690
114 691
115 631
115 632
116 853
116 854
117 626
117 627
118 839
118 840
119 1001
119 1002
120 848
120 849
121 708
121 709
122 175
122 485
123 524
123 525
123 973
123 974
124 706
124 707
125 309
125 998
126 655
126 656
126 870
126 871
127 985
127 986
128 753
128 754
129 482
129 483
130 251
130 842
130 843
130 907
131 677
131 678
132 602
132 603
132 841
132 842
132 978
132 979
133 694
133 695
134 723
134 724
135 983
135 984
136 251
136 543
137 681
137 682
138 849
138 850
139 454
139 455
139 812
139 813
139 957
139 958
140 863
140 864
140 1002
140 1003
141 700
141 701
141 894
141 895
142 476
142 477
143 499
143 500
144 652
144 653
145 888
145 889
146 778
146 779
147 601
147 602
148 941
148 942
149 618
149 619
150 550
150 551
151 867
151 868
152 820
152 821
153 639
153 640
154 762
154 763
155 865
155 866
156 936
156 937
157 525
157 526
158 738
158 739
159 569
159 570
160 802
160 803
161 969
161 970
162 600
162 601
163 958
163 959
164 509
164 510
165 860
165 861
166 619
166 620
166 857
166 858
167 494
167 495
168 337
168 709
168 797
168 798
169 614
169 615
169 851
169 852
170 847
170 848
171 440
171 441
171 520
171 521
171 662
171 663
172 438
172 439
172 548
172 549
172 919
172 920
173 460
173 461
173 698
173 699
174 884
174 885
175 485
176 654
176 655
177 579
177 580
178 909
178 910
179 623
179 624
180 918
180 919
181 668
181 669
182 469
182 470
182 705
182 706
183 680
183 681
184 994
184 995
185 458
185 459
186 866
186 867
187 927
187 928
188 465
188 466
188 513
188 514
188 702
188 703
189 624
189 625
189 749
189 750
190 892
190 893
191 804
191 805
192 512
192 513
192 769
192 770
193 566
193 567
193 818
193 819
194 805
194 806
194 926
194 927
195 644
195 645
196 992
196 993
197 935
198 447
198 448
199 881
199 882
200 951
200 952
201 468
201 469
201 542
201 543
201 574
201 575
202 964
202 965
203 775
203 776
204 567
204 568
205 931
205 932
206 638
206 639
207 492
207 493
208 754
208 755
209 660
209 661
210 799
210 800
211 764
211 765
212 685
212 686
213 746
213 747
214 976
214 977
215 817
215 818
215 899
215 900
216 997
216 998
217 987
217 988
218 798
218 799
219 882
219 883
220 837
220 838
221 457
221 458
222 625
222 626
223 521
223 522
223 586
223 587
224 996
224 997
225 555
225 556
226 707
226 708
227 450
227 451
227 641
227 642
228 692
228 693
229 598
229 599
230 582
230 583
231 646
231 647
232 947
232 948
233 473
233 474
233 505
233 506
234 488
234 489
234 948
234 949
235 724
235 725
235 965
235 966
236 825
236 826
237 916
237 917
238 632
238 633
239 609
239 610
240 859
240 860
240 920
240 921
241 756
241 757
242 874
242 875
243 585
243 586
243 726
243 727
244 757
244 758
245 581
245 582
246 981
246 982
247 710
247 711
248 661
248 662
249 481
249 482
250 676
250 677
250 885
250 886
251 471
251 543
251 576
251 577
251 824
251 825
251 907
252 993
252 994
253 844
253 845
254 580
254 581
255 761
255 762
256 665
256 666
257 687
257 688
258 453
258 454
258 501
258 502
258 607
258 608
258 736
258 737
259 620
259 621
259 745
259 746
260 819
260 820
260 902
260 903
261 437
261 438
261 908
261 909
262 477
262 478
263 970
263 971
264 445
264 446
265 954
265 955
266 755
266 756
267 929
267 930
268 518
268 519
269 443
269 444
269 490
269 491
269 633
269 634
270 556
270 557
271 840
271 841
272 462
272 463
272 653
272 654
273 484
273 485
273 779
273 780
274 806
274 807
275 713
275 714
276 557
276 558
276 810
276 811
277 606
277 607
278 807
278 808
278 903
278 904
279 491
279 492
280 727
280 728
281 486
281 487
282 563
282 564
283 587
283 588
284 766
284 767
285 474
285 475
285 728
285 729
285 922
285 923
286 537
286 538
286 689
286 690
287 712
287 713
288 534
288 535
289 559
289 560
290 732
290 733
291 436
291 437
292 530
292 531
292 758
292 759
292 930
292 931
293 616
293 617
294 943
294 944
295 495
295 496
296 794
296 795
297 886
297 887
298 517
299 643
299 644
299 759
299 760
300 946
300 947
301 571
301 572
301 963
301 964
302 995
302 996
303 800
303 801
303 938
303 939
304 599
304 600
305 522
305 523
306 695
306 696
306 789
306 790
307 464
307 465
308 439
308 440
308 584
308 585
308 831
308 832
309 998
310 827
310 828
311 734
311 735
312 475
312 476
313 737
313 738
314 697
314 698
315 472
315 473
316 875
316 876
317 466
317 467
317 540
317 541
317 573
317 574
317 822
317 823
318 688
318 689
319 615
319 616
319 855
319 856
320 478
320 479
321 651
321 652
321 768
321 769
322 752
322 753
323 504
323 505
323 986
323 987
324 605
324 606
325 531
325 532
326 760
326 761
327 523
327 524
328 511
328 512
329 773
329 774
330 535
330 536
331 942
331 943
332 595
332 596
333 852
333 853
333 901
333 902
334 455
334 456
334 536
334 537
334 686
334 687
335 683
335 684
335 979
335 980
336 669
336 670
336 777
336 778
337 347
337 709
337 896
338 879
338 880
339 558
339 559
339 814
339 815
340 650
340 651
341 813
341 814
341 897
341 898
342 743
342 744
343 502
343 503
344 642
344 643
345 470
345 471
346 627
346 628
346 750
346 751
347 896
348 719
348 720
349 510
349 511
350 463
350 464
351 786
351 787
352 962
352 963
353 634
353 635
354 547
354 548
354 801
354 802
355 923
355 924
356 621
356 622
357 479
357 480
358 832
358 833
359 925
359 926
360 730
360 731
361 596
361 597
362 565
362 566
362 816
362 817
363 539
363 540
364 608
364 609
365 647
365 648
365 763
365 764
366 441
366 442
366 526
366 527
367 833
367 834
368 876
368 877
369 622
369 623
369 748
369 749
370 617
370 618
371 589
371 590
372 868
372 869
373 498
373 499
373 977
373 978
374 858
374 859
375 449
375 450
376 577
376 578
377 747
377 748
378 928
378 929
379 878
379 879
380 588
380 589
381 533
381 534
381 864
381 865
381 905
381 906
382 629
382 630
383 612
383 613
383 921
383 922
384 783
384 784
384 999
384 1000
385 656
385 657
385 871
385 872
386 673
386 674
387 774
387 775
388 751
388 752
389 856
389 857
390 893
390 894
391 603
391 604
392 503
392 504
392 984
392 985
393 772
393 773
394 519
394 520
395 869
395 870
396 843
396 844
397 990
397 991
398 604
398 605
398 735
398 736
399 496
399 497
400 815
400 816
401 483
401 484
401 873
401 874
401 932
401 933
401 966
401 967
402 877
402 878
403 696
403 697
403 788
403 789
404 956
404 957
405 516
405 517
406 845
406 846
407 704
407 705
407 793
407 794
408 672
408 673
408 910
408 911
409 803
409 804
410 872
410 873
410 904
410 905
411 974
411 975
412 545
412 546
413 887
413 888
414 544
414 545
415 592
415 593
415 834
415 835
416 780
416 781
417 785
417 786
418 564
418 565
419 459
419 460
420 682
420 683
421 657
421 658
422 949
422 950
423 551
423 552
424 767
424 768
425 594
425 595
425 731
425 732
426 850
426 851
427 674
427 675
428 590
428 591
429 562
429 563
430 725
430 726
431 889
431 890
431 898
431 899
432 628
432 629
433 744
433 745
433 933
433 934
434 944
434 945
435 549
435 550
436 437
437 438
438 439
439 440
440 441
441 442
442 443
443 444
444 445
445 446
446 447
447 448
448 449
449 450
450 451
451 452
452 453
453 454
454 455
455 456
456 457
457 458
458 459
459 460
460 461
461 462
462 463
463 464
464 465
465 466
466 467
467 468
468 469
469 470
470 471
472 473
473 474
474 475
475 476
476 477
477 478
478 479
479 480
480 481
481 482
482 483
483 484
484 485
486 487
487 488
488 489
489 490
490 491
491 492
492 493
493 494
494 495
495 496
496 497
497 498
498 499
499 500
500 501
501 502
502 503
503 504
504 505
505 506
506 507
507 508
508 509
509 510
510 511
511 512
512 513
513 514
514 515
515 516
516 517
518 519
519 520
520 521
521 522
522 523
523 524
524 525
525 526
526 527
527 528
528 529
529 530
530 531
531 532
532 533
533 534
534 535
535 536
536 537
537 538
538 539
539 540
540 541
541 542
542 543
544 545
545 546
546 547
547 548
548 549
549 550
550 551
551 552
552 553
553 554
554 555
555 556
556 557
557 558
558 559
559 560
560 561
561 562
562 563
563 564
564 565
565 566
566 567
567 568
568 569
569 570
570 571
571 572
572 573
573 574
574 575
575 576
576 577
577 578
578 579
579 580
580 581
581 582
582 583
583 584
584 585
585 586
586 587
587 588
588 589
589 590
590 591
591 592
592 593
593 594
594 595
595 596
596 597
597 598
598 599
599 600
600 601
601 602
602 603
603 604
604 605
605 606
606 607
607 608
608 609
609 610
610 611
611 612
612 613
613 614
614 615
615 616
616 617
617 618
618 619
619 620
620 621
621 622
622 623
623 624
624 625
625 626
626 627
627 628
628 629
629 630
630 631
631 632
632 633
633 634
634 635
635 636
636 637
637 638
638 639
639 640
640 641
641 642
642 643
643 644
644 645
645 646
646 647
647 648
648 649
649 650
650 651
651 652
652 653
653 654
654 655
655 656
656 657
657 658
658 659
659 660
660 661
661 662
662 663
663 664
664 665
665 666
666 667
667 668
668 669
669 670
670 671
671 672
672 673
673 674
674 675
675 676
676 677
677 678
678 679
679 680
680 681
681 682
682 683
683 684
684 685
685 686
686 687
687 688
688 689
689 690
690 691
691 692
692 693
693 694
694 695
695 696
696 697
697 698
698 699
699 700
700 701
701 702
702 703
703 704
704 705
705 706
706 707
707 708
708 709
710 711
711 712
712 713
713 714
714 715
715 716
716 717
717 718
718 719
719 720
720 721
721 722
722 723
723 724
724 725
725 726
726 727
727 728
728 729
729 730
730 731
731 732
732 733
733 734
734 735
735 736
736 737
737 738
738 739
739 740
740 741
741 742
742 743
743 744
744 745
745 746
746 747
747 748
748 749
749 750
750 751
751 752
752 753
753 754
754 755
755 756
756 757
757 758
758 759
759 760
760 761
761 762
762 763
763 764
764 765
765 766
766 767
767 768
768 769
769 770
770 771
771 772
772 773
773 774
774 775
775 776
776 777
777 778
778 779
779 780
780 781
781 782
782 783
783 784
784 785
785 786
786 787
787 788
788 789
789 790
790 791
791 792
792 793
793 794
794 795
795 796
796 797
797 798
798 799
799 800
800 801
801 802
802 803
803 804
804 805
805 806
806 807
807 808
808 809
809 810
810 811
811 812
812 813
813 814
814 815
815 816
816 817
817 818
818 819
819 820
820 821
821 822
822 823
823 824
824 825
825 826
826 827
827 828
828 829
829 830
830 831
831 832
832 833
833 834
834 835
835 836
836 837
837 838
838 839
839 840
840 841
841 842
842 843
843 844
844 845
845 846
846 847
847 848
848 849
849 850
850 851
851 852
852 853
853 854
854 855
855 856
856 857
857 858
858 859
859 860
860 861
861 862
862 863
863 864
864 865
865 866
866 867
867 868
868 869
869 870
870 871
871 872
872 873
873 874
874 875
875 876
876 877
877 878
878 879
879 880
880 881
881 882
882 883
883 884
884 885
885 886
886 887
887 888
888 889
889 890
890 891
891 892
892 893
893 894
894 895
895 896
897 898
898 899
899 900
900 901
901 902
902 903
903 904
904 905
905 906
906 907
908 909
909 910
910 911
911 912
912 913
913 914
914 915
916 917
917 918
918 919
919 920
920 921
921 922
922 923
923 924
924 925
925 926
926 927
927 928
928 929
929 930
930 931
931 932
932 933
933 934
934 935
936 937
937 938
938 939
939 940
940 941
941 942
942 943
943 944
944 945
945 946
946 947
947 948
948 949
949 950
950 951
951 952
952 953
953 954
954 955
955 956
956 957
957 958
958 959
959 960
960 961
961 962
962 963
963 964
964 965
965 966
966 967
967 968
968 969
969 970
970 971
971 972
972 973
973 974
974 975
975 976
976 977
977 978
978 979
979 980
980 981
981 982
982 983
983 984
984 985
985 986
986 987
987 988
988 989
989 990
990 991
991 992
992 993
993 994
994 995
995 996
996 997
997 998
999 1000
1000 1001
1001 1002
1002 1003
